unsat
(:SPACER-cluster-out-of-gas           103
 :SPACER-conj                         87
 :SPACER-inductive-gen                235
 :SPACER-inductive-gen-weaken-fail    259
 :SPACER-inductive-gen-weaken-success 35
 :SPACER-inductive-level              46
 :SPACER-max-depth                    46
 :SPACER-max-query-lvl                46
 :SPACER-non-local-gen                364
 :SPACER-num-active-lemmas            63
 :SPACER-num-ctp-blocked              466
 :SPACER-num-invariants               60
 :SPACER-num-is_invariant             3348
 :SPACER-num-lemma-jumped             43
 :SPACER-num-lemmas                   380
 :SPACER-num-pobs                     204
 :SPACER-num-propagations             2646
 :SPACER-num-queries                  191
 :SPACER-subsume-failed               5
 :SPACER-subsume-pob                  86
 :SPACER-subsume-success              201
 :added-eqs                           39454
 :arith-assert-diseq                  69324
 :arith-assert-lower                  111458
 :arith-assert-upper                  178704
 :arith-bound-prop                    1106
 :arith-conflicts                     202
 :arith-eq-adapter                    5296
 :arith-fixed-eqs                     8008
 :arith-num-rows                      68
 :arith-offset-eqs                    5482
 :arith-pivots                        3142
 :arith-row-summations                18930
 :arith-tableau-max-columns           142
 :arith-tableau-max-rows              68
 :conflicts                           9514
 :decisions                           98586
 :del-clause                          9836
 :final-checks                        1118
 :iuc_solver.num_proxies              214
 :max-memory                          92.15
 :memory                              83.21
 :minimized-lits                      960
 :mk-bool-var                         23046
 :mk-clause                           24200
 :num-allocs                          11174569646.00
 :num-checks                          8878
 :pool_solver.checks                  4439
 :pool_solver.checks.sat              559
 :propagations                        947574
 :rlimit-count                        3467496
 :time                                4.92
 :time.iuc_solver.get_iuc             0.36
 :time.iuc_solver.get_iuc.hyp_reduce1 0.12
 :time.iuc_solver.get_iuc.hyp_reduce2 0.17
 :time.iuc_solver.get_iuc.learn_core  0.05
 :time.pool_solver.proof              0.06
 :time.pool_solver.smt.total          2.74
 :time.pool_solver.smt.total.sat      0.59
 :time.spacer.ctp                     0.08
 :time.spacer.init_rules              0.00
 :time.spacer.mbp                     0.04
 :time.spacer.solve                   4.88
 :time.spacer.solve.propagate         2.16
 :time.spacer.solve.reach             2.72
 :time.spacer.solve.reach.children    0.15
 :time.spacer.solve.reach.cluster     0.40
 :time.spacer.solve.reach.gen.global  0.59
 :time.spacer.solve.reach.gen.ind     0.11
 :time.spacer.solve.reach.is-reach    0.04)
(:max-memory   92.15
 :memory       83.21
 :num-allocs   11174569646.00
 :rlimit-count 3467496
 :time         4.92
 :total-time   4.94)
